(set-info :source |printed by MathSAT|)
(declare-fun |!{$(in_main#0)<N>}| () Int)
(declare-fun |!{$(in_main#0)<N>}.next| () Int)
(declare-fun |!{$(in_main#0)<i>}| () Int)
(declare-fun |!{$(in_main#0)<i>}.next| () Int)
(declare-fun |!{$(in_main#0)<x>}| () Int)
(declare-fun |!{$(in_main#0)<x>}.next| () Int)
(declare-fun |!{$(in_main#0)<a.1>}| () (Array Int Int))
(declare-fun |!{$(in_main#0)<a.1>}.next| () (Array Int Int))
(declare-fun |!{$(in_main#0)<$(in___VERIFIER_nondet_int#0)<h#<__VERIFIER_nondet_int.return>>>}| () Int)
(declare-fun !pc () Int)
(declare-fun !pc.next () Int)
(declare-fun |%{$(in_main#0)<x>}#1| () Int)
(declare-fun |%{$(in_main#0)<a.1>}#1| () (Array Int Int))
(define-fun .def_25 () Int (! !pc :next !pc.next))
(define-fun .def_28 () Bool (! (= .def_25 2) :init true))
(define-fun .def_148 () Bool (= .def_25 22))
(define-fun .def_136 () Bool (= !pc.next 34))
(define-fun .def_151 () Bool (and .def_136 .def_148))
(define-fun .def_8 () Int (! |!{$(in_main#0)<N>}| :next |!{$(in_main#0)<N>}.next|))
(define-fun .def_61 () Bool (= .def_8 |!{$(in_main#0)<N>}.next|))
(define-fun .def_40 () Bool (= |!{$(in_main#0)<i>}.next| 0))
(define-fun .def_130 () Bool (and .def_40 .def_61))
(define-fun .def_12 () Int (! |!{$(in_main#0)<x>}| :next |!{$(in_main#0)<x>}.next|))
(define-fun .def_65 () Bool (= .def_12 |!{$(in_main#0)<x>}.next|))
(define-fun .def_131 () Bool (and .def_65 .def_130))
(define-fun .def_14 () (Array Int Int) (! |!{$(in_main#0)<a.1>}| :next |!{$(in_main#0)<a.1>}.next|))
(define-fun .def_67 () Bool (= .def_14 |!{$(in_main#0)<a.1>}.next|))
(define-fun .def_132 () Bool (and .def_67 .def_131))
(define-fun .def_10 () Int (! |!{$(in_main#0)<i>}| :next |!{$(in_main#0)<i>}.next|))
(define-fun .def_100 () Bool (<= .def_8 .def_10))
(define-fun .def_133 () Bool (and .def_100 .def_132))
(define-fun .def_152 () Bool (and .def_133 .def_151))
(define-fun .def_47 () Bool (= !pc.next 22))
(define-fun .def_149 () Bool (and .def_47 .def_148))
(define-fun .def_144 () (Array Int Int) (store .def_14 .def_10 42))
(define-fun .def_145 () Bool (= |!{$(in_main#0)<a.1>}.next| .def_144))
(define-fun .def_105 () Int (* (- 1) |!{$(in_main#0)<i>}.next|))
(define-fun .def_106 () Int (+ .def_10 .def_105))
(define-fun .def_107 () Bool (= .def_106 (- 1)))
(define-fun .def_108 () Bool (and .def_61 .def_107))
(define-fun .def_109 () Bool (and .def_65 .def_108))
(define-fun .def_146 () Bool (and .def_109 .def_145))
(define-fun .def_101 () Bool (not .def_100))
(define-fun .def_147 () Bool (and .def_101 .def_146))
(define-fun .def_150 () Bool (and .def_147 .def_149))
(define-fun .def_153 () Bool (or .def_150 .def_152))
(define-fun .def_135 () Bool (= .def_25 34))
(define-fun .def_119 () Bool (= !pc.next 46))
(define-fun .def_139 () Bool (and .def_119 .def_135))
(define-fun .def_140 () Bool (and .def_133 .def_139))
(define-fun .def_137 () Bool (and .def_135 .def_136))
(define-fun .def_126 () (Array Int Int) (store .def_14 .def_10 43))
(define-fun .def_127 () Bool (= |!{$(in_main#0)<a.1>}.next| .def_126))
(define-fun .def_128 () Bool (and .def_109 .def_127))
(define-fun .def_129 () Bool (and .def_101 .def_128))
(define-fun .def_138 () Bool (and .def_129 .def_137))
(define-fun .def_141 () Bool (or .def_138 .def_140))
(define-fun .def_118 () Bool (= .def_25 46))
(define-fun .def_89 () Bool (= !pc.next 59))
(define-fun .def_122 () Bool (and .def_89 .def_118))
(define-fun .def_113 () Bool (= |!{$(in_main#0)<x>}.next| 0))
(define-fun .def_63 () Bool (= .def_10 |!{$(in_main#0)<i>}.next|))
(define-fun .def_70 () Bool (and .def_61 .def_63))
(define-fun .def_114 () Bool (and .def_70 .def_113))
(define-fun .def_115 () Bool (and .def_67 .def_114))
(define-fun .def_116 () Bool (and .def_100 .def_115))
(define-fun .def_123 () Bool (and .def_116 .def_122))
(define-fun .def_120 () Bool (and .def_118 .def_119))
(define-fun .def_103 () (Array Int Int) (store .def_14 .def_10 44))
(define-fun .def_110 () Bool (= |!{$(in_main#0)<a.1>}.next| .def_103))
(define-fun .def_111 () Bool (and .def_109 .def_110))
(define-fun .def_112 () Bool (and .def_101 .def_111))
(define-fun .def_121 () Bool (and .def_112 .def_120))
(define-fun .def_124 () Bool (or .def_121 .def_123))
(define-fun .def_93 () Bool (= !pc.next 0))
(define-fun .def_84 () Bool (= .def_25 59))
(define-fun .def_94 () Bool (and .def_84 .def_93))
(define-fun .def_50 () Bool (<= .def_8 .def_12))
(define-fun .def_79 () Bool (and .def_50 .def_61))
(define-fun .def_80 () Bool (and .def_63 .def_79))
(define-fun .def_81 () Bool (and .def_65 .def_80))
(define-fun .def_82 () Bool (and .def_67 .def_81))
(define-fun .def_95 () Bool (and .def_82 .def_94))
(define-fun .def_90 () Bool (and .def_84 .def_89))
(define-fun .def_72 () Int (* (- 1) |!{$(in_main#0)<x>}.next|))
(define-fun .def_73 () Int (+ .def_12 .def_72))
(define-fun .def_74 () Bool (= .def_73 (- 1)))
(define-fun .def_75 () Bool (and .def_70 .def_74))
(define-fun .def_76 () Bool (and .def_67 .def_75))
(define-fun .def_52 () Int (select .def_14 .def_12))
(define-fun .def_54 () Bool (= .def_52 43))
(define-fun .def_55 () Int (ite .def_54 1 0))
(define-fun .def_56 () Bool (= .def_55 0))
(define-fun .def_57 () Bool (not .def_56))
(define-fun .def_77 () Bool (and .def_57 .def_76))
(define-fun .def_51 () Bool (not .def_50))
(define-fun .def_78 () Bool (and .def_51 .def_77))
(define-fun .def_91 () Bool (and .def_78 .def_90))
(define-fun .def_86 () Bool (= !pc.next 79))
(define-fun .def_87 () Bool (and .def_84 .def_86))
(define-fun .def_62 () Bool (and .def_56 .def_61))
(define-fun .def_64 () Bool (and .def_62 .def_63))
(define-fun .def_66 () Bool (and .def_64 .def_65))
(define-fun .def_68 () Bool (and .def_66 .def_67))
(define-fun .def_69 () Bool (and .def_51 .def_68))
(define-fun .def_88 () Bool (and .def_69 .def_87))
(define-fun .def_92 () Bool (or .def_88 .def_91))
(define-fun .def_96 () Bool (or .def_92 .def_95))
(define-fun .def_48 () Bool (and .def_28 .def_47))
(define-fun .def_44 () Bool (= |!{$(in_main#0)<a.1>}.next| |%{$(in_main#0)<a.1>}#1|))
(define-fun .def_42 () Bool (= |!{$(in_main#0)<x>}.next| |%{$(in_main#0)<x>}#1|))
(define-fun .def_39 () Bool (= |!{$(in_main#0)<N>}.next| |!{$(in_main#0)<$(in___VERIFIER_nondet_int#0)<h#<__VERIFIER_nondet_int.return>>>}|))
(define-fun .def_41 () Bool (and .def_39 .def_40))
(define-fun .def_43 () Bool (and .def_41 .def_42))
(define-fun .def_45 () Bool (and .def_43 .def_44))
(define-fun .def_49 () Bool (and .def_45 .def_48))
(define-fun .def_97 () Bool (or .def_49 .def_96))
(define-fun .def_125 () Bool (or .def_97 .def_124))
(define-fun .def_142 () Bool (or .def_125 .def_141))
(define-fun .def_154 () Bool (! (or .def_142 .def_153) :trans true))
(define-fun .def_98 () Bool (= .def_25 79))
(define-fun .def_155 () Bool (! (not .def_98) :invar-property 0 :invar-property-name ||))
(assert true)
